Traveling Salesman Problem/TSP_generados/Aleatorio1621103302_9.tsp
NAME: Aleatorio1621103302_9.tsp
COMMENT: Randomly generated scenario
TYPE: TSP
DIMENSION: 9
EDGE_WEIGHT_TYPE: ATT
NODE_COORD_SECTION
1 43.07 39.51
2 46.85 27.92
3 44.32 48.8
4 1.39 39.74
5 28.7 22.2
6 24.5 40.92
7 12.26 32.68
8 34.58 44.07
9 9.86 0.3
