Traveling Salesman Problem/TSP_generados/Aleatorio1621103302_9.opt.tour
NAME: Aleatorio1621103302_9.opt.tour
COMMENT: Optimal solution for Aleatorio1621103302_9 (158.9276396546411)
TYPE: TOUR
DIMENSION: 9
TOUR_SECTION
1 2 5 9 4 7 6 8 3
-1
EOF
